width,height
25,25
2,6
8,6
5,7
1,1
4,2
10,4
10,3
6,8
9,4
6,9
7,8
7,9
8,8
4,10
7,2
2,2
6,1
6,3
1,9
8,3
1,4
3,4
7,7
8,7
3,4
4,7
8,10
3,7
2,6
2,9
8,9
1,3
8,6
3,10
9,3
3,10
2,7
3,10
2,3
3,1
10,8
6,7
2,9
3,10
2,6
1,5
3,3
8,4
1,1
10,4
3,3
6,5
5,2
5,1
10,7
4,4
1,9
6,3
3,9
1,7
2,6
7,6
4,1
7,9
9,9
6,6
2,7
9,5
4,3
3,3
1,8
5,3
3,8
6,5
9,6
3,8
4,1
5,5
2,9
6,10
4,7
7,2
3,10
7,1
8,1
6,6
9,10
9,2
7,6
2,1
5,3
10,3
2,2
9,3
5,1
5,7
8,9
3,10
1,1
9,1
